This is Ipopt version 3.10.0, running with linear solver ma27.

Number of nonzeros in equality constraint Jacobian...:        2
Number of nonzeros in inequality constraint Jacobian.:        4
Number of nonzeros in Lagrangian Hessian.............:        0

Total number of variables............................:        2
                     variables with only lower bounds:        0
                variables with lower and upper bounds:        2
                     variables with only upper bounds:        0
Total number of equality constraints.................:        1
Total number of inequality constraints...............:        2
        inequality constraints with only lower bounds:        0
   inequality constraints with lower and upper bounds:        0
        inequality constraints with only upper bounds:        2

iter    objective    inf_pr   inf_du lg(mu)  ||d||  lg(rg) alpha_du alpha_pr  ls
   0  9.6101115e+04 4.66e-01 3.00e+02   0.0 0.00e+00    -  0.00e+00 0.00e+00   0
   1  9.5476083e+04 4.63e-01 3.77e+03   2.0 3.73e+02    -  4.11e-01 4.32e-03f  1
   2  1.0156850e+05 2.99e-01 9.70e+04   1.5 1.80e+02    -  1.12e-02 3.01e-01h  1
   3  1.2200726e+05 5.59e-02 2.38e+02   2.3 1.23e+02    -  1.00e+00 1.00e+00h  1
   4  1.2644515e+05 5.02e-03 1.74e+03   1.2 1.20e+01    -  9.98e-01 8.87e-01h  1
   5  1.2709587e+05 4.15e-04 7.05e-01  -0.6 1.15e+00    -  1.00e+00 1.00e+00h  1
   6  1.2702951e+05 5.00e-05 1.06e+00  -6.0 1.27e-01    -  9.89e-01 9.92e-01f  1
   7  1.2703393e+05 4.91e-06 1.95e-02  -4.1 1.27e-02    -  1.00e+00 9.99e-01h  1
   8  1.2703151e+05 1.31e-05 3.26e-05  -6.1 3.22e-03    -  1.00e+00 1.00e+00f  1

Number of Iterations....: 8

                                   (scaled)                 (unscaled)
Objective...............:   1.2703150668054968e+05    1.2703150668054968e+05
Dual infeasibility......:   3.2620743426914203e-05    3.2620743426914203e-05
Constraint violation....:   1.3062053794390981e-05    1.3062053794390981e-05
Complementarity.........:   7.7416203284749993e-07    7.7416203284749993e-07
Overall NLP error.......:   1.3062053794390981e-05    3.2620743426914203e-05


Number of objective function evaluations             = 9
Number of objective gradient evaluations             = 9
Number of equality constraint evaluations            = 9
Number of inequality constraint evaluations          = 9
Number of equality constraint Jacobian evaluations   = 9
Number of inequality constraint Jacobian evaluations = 9
Number of Lagrangian Hessian evaluations             = 0
Total CPU secs in IPOPT (w/o function evaluations)   =      0.008
Total CPU secs in NLP function evaluations           =      1.118

EXIT: Optimal Solution Found.
